15

C    2.2148194641    -0.1721527222    0.1151150779
C    0.7173071817    -0.0530407355    0.0207823226
C    0.0846883043    1.1801118696    0.1892702610
C    -1.3010194359    1.2883164226    0.1331885431
C    -2.0814345056    0.1595972285    -0.0953099004
C    -1.4639200117    -1.0747848181    -0.2687837380
C    -0.0777490415    -1.1769072713    -0.2116041730
H    2.5268054660    -0.3634073688    1.1445624364
H    2.7062892220    0.7444598995    -0.2106187139
H    2.5860397387    -0.9937057156    -0.4972566126
H    0.6842476089    2.0656823139    0.3634492386
H    -1.7704124107    2.2546490661    0.2641603154
H    -3.1591200242    0.2418550159    -0.1421645498
H    -2.0608157533    -1.9586535992    -0.4525959655
H    0.3942741972    -2.1420195858    -0.3521945418
