!PBE def2-SVP RIJCOSX def2/J TightOPT NearIR NumFreq

%elprop
	Polar 1
end

%pal
	nprocs 4
end

%maxcore 350

*xyz 0 1
C       -5.73540       -0.75177       -0.00000
O       -5.48110        0.41725       -0.00000
O       -5.98974       -1.92086       -0.00000
*


