%pal
  nprocs 8
end

%maxcore 750

! PBE def2-SVP 
! RIJCOSX def2/J

! NumFreq
! NearIR

%elprop
  polar 1
end

* xyzfile 0 1 CO2.xyz

