%pal
  nprocs 8
end

%maxcore 750

! PBE def2-SVP 
! RIJCOSX def2/J


%scf
  maxiter 1
end

* xyzfile 0 1 water.xyz

