%pal
  nprocs 8
end

%maxcore 750

! PBE def2-SVP 
! RIJCOSX def2/J


* xyzfile 0 2 water.xyz

