%pal
  nprocs 8
end

%maxcore 750

! DLPNO-CCSD def2-SVP 
! RIJCOSX def2/J


* xyzfile 0 1 water.xyz

