%pal
  nprocs 8
end

%maxcore 750

! PBE def2-SVP D3BJ
! NEB-CI

%neb
  product "NEB_product.xyz"
  nimages 5
end

* xyzfile 0 1 NEB_reactant.xyz

