! PBE def2-SVP D3BJ NEB-TS

%pal
    nprocs 4
end

%maxcore 750

%neb
    neb_end_xyzfile "NEB_product.xyz"
    NImages 5
end

*xyzfile 0 1 NEB_reactant.xyz

