%pal
  nprocs 8
end

%maxcore 750

! PBE def2-SVP D3BJ
! TIGHTSCF SLOWCONV 
! OptTS
! Freq

%geom
  calc_hess true
end

* xyzfile -1 1 distorted_TS.xyz

