%pal
  nprocs 8
end

%maxcore 750

! PBE def2-SVP 
! RIJCOSX def2/J

! Opt

%geom
  scan B 0 1 = 0.8, 1.5, 10  end
end

* xyzfile 0 1 water.xyz

