%pal
  nprocs 8
end

%maxcore 750

! DLPNO-CCSD def2-SVP 
! RIJCOSX AutoAux


* xyzfile 1 2 water.xyz

