%pal
  nprocs 8
end

%maxcore 750

! PBE def2-SVP 
! RIJCOSX def2/J


%cpcm
  smd true
  smdsolvent "DMSO"
end

* xyzfile 1 2 water.xyz

