%pal
  nprocs 8
end

%maxcore 750

! PBE def2-SVP 
! RIJCOSX def2/J

! NumFreq

%cpcm
  smd true
  smdsolvent "ethanol"
end

* xyzfile 0 1 water.xyz

