%pal
  nprocs 4
end

%maxcore 350

! DLPNO-CCSD def2-SVP
! RIJCOSX AutoAux

* xyz 1 2
O       -3.21035       -0.58504       -0.01395
H       -2.24247       -0.61827        0.01848
H       -3.48920       -1.24911        0.63429
*
